c SAT Generator for power-law distributed variable frequencies
c -g u -v 20 -c 91 -k 3 -p 2.750000 -b 3.200000 -f /home/schmidt/Devel/ni-kop-sat/data/ensemble/ruf20-91/ruf20-91-319 -u 1 -U 1 -s 3165156861
p cnf 20 91
6 9 11 0
1 -7 -8 0
-1 -8 16 0
-2 9 -19 0
-6 11 -13 0
1 -9 -13 0
-8 10 -13 0
11 -15 20 0
-2 -8 9 0
-1 -6 -12 0
-7 9 10 0
-1 11 13 0
3 -11 19 0
2 -3 17 0
-15 -16 18 0
7 12 -17 0
3 -12 19 0
1 -3 20 0
1 5 -10 0
-15 -17 18 0
2 3 -19 0
12 18 -19 0
-1 -19 -20 0
4 5 -8 0
-2 17 -19 0
-14 -15 20 0
-2 3 18 0
-8 -15 -19 0
7 8 -16 0
15 -16 -18 0
3 6 -15 0
-6 -9 10 0
-12 -19 20 0
15 16 -17 0
-3 -12 -15 0
1 -5 -14 0
9 -10 -12 0
13 14 18 0
-4 9 -11 0
-4 7 -11 0
-8 -12 18 0
6 -17 -20 0
4 16 19 0
-12 13 14 0
1 3 9 0
7 -16 19 0
1 -8 11 0
2 -4 19 0
9 11 16 0
-3 14 -16 0
2 -5 8 0
-6 -13 18 0
-8 -9 20 0
-2 -7 11 0
6 -7 13 0
-2 -5 -13 0
-8 -18 -19 0
8 9 11 0
16 18 -20 0
4 8 -11 0
5 13 18 0
12 13 19 0
6 -9 -16 0
-14 -17 19 0
10 -11 -15 0
-8 16 17 0
7 8 20 0
8 -18 -20 0
-9 -15 -20 0
-9 12 -14 0
15 -16 18 0
11 -16 19 0
-7 11 18 0
13 16 -20 0
1 -13 -17 0
10 11 15 0
2 3 -7 0
-3 14 -15 0
-7 8 -10 0
2 -17 20 0
3 5 6 0
5 -8 20 0
7 13 17 0
-3 12 17 0
6 -9 -14 0
8 12 -17 0
-5 8 9 0
8 11 20 0
-10 -12 -19 0
-1 2 -5 0
8 12 15 0
